; benchmark generated from python API
(set-info :status unknown)
(declare-fun DISJ_W_S1_R_S2 () Bool)
(declare-fun W_S2_V5 () Bool)
(declare-fun W_S1_V4 () Bool)
(declare-fun W_S1_V5 () Bool)
(declare-fun R_S1_V4 () Bool)
(declare-fun DISJ_W_S1_R_S1 () Bool)
(declare-fun DISJ_W_S2_R_S1 () Bool)
(declare-fun R_S2_V3 () Bool)
(declare-fun R_S1_V1 () Bool)
(declare-fun R_S2_V4 () Bool)
(declare-fun DISJ_W_S1_W_S2 () Bool)
(declare-fun DISJ_W_S2_R_S2 () Bool)
(declare-fun R_E1_V4 () Bool)
(declare-fun R_E1_V5 () Bool)
(declare-fun W_S2_V2 () Bool)
(declare-fun W_S2_V3 () Bool)
(declare-fun W_S2_V1 () Bool)
(declare-fun R_S2_V5 () Bool)
(declare-fun R_S2_V2 () Bool)
(declare-fun R_S2_V1 () Bool)
(declare-fun R_S1_V5 () Bool)
(declare-fun R_S1_V2 () Bool)
(declare-fun R_S1_V3 () Bool)
(declare-fun R_E1_V2 () Bool)
(declare-fun DISJ_W_S2_R_E1 () Bool)
(declare-fun R_E1_V3 () Bool)
(declare-fun W_S2_V4 () Bool)
(declare-fun W_S1_V3 () Bool)
(declare-fun W_S1_V2 () Bool)
(declare-fun W_S1_V1 () Bool)
(declare-fun R_E1_V1 () Bool)
(declare-fun DISJ_W_S1_R_E1 () Bool)
(assert
 (let (($x2315 (not W_S2_V5)))
 (let (($x691 (not W_S1_V4)))
 (let (($x3779 (not W_S1_V5)))
 (let (($x657 (not R_S1_V4)))
 (let (($x3913 (not (and $x657 $x3779 $x691 $x2315 DISJ_W_S1_R_S2))))
 (let (($x922 (not R_S2_V3)))
 (let (($x813 (not R_S1_V1)))
 (let (($x5958 (not (and $x813 $x922 $x691 $x2315 DISJ_W_S2_R_S1 DISJ_W_S1_R_S1))))
 (let (($x3264 (not R_S2_V4)))
 (let (($x2871 (and $x922 $x3264 $x2315 DISJ_W_S2_R_S1)))
 (let (($x3027 (not $x2871)))
 (let (($x2273 (and DISJ_W_S1_R_S2 DISJ_W_S2_R_S1)))
 (let (($x826 (not $x2273)))
 (let (($x3538 (not (and $x813 DISJ_W_S2_R_S1 DISJ_W_S1_W_S2 DISJ_W_S1_R_S1))))
 (let (($x3716 (and DISJ_W_S2_R_S1 DISJ_W_S2_R_S2)))
 (let (($x3657 (not $x3716)))
 (let (($x300 (not (and W_S1_V4 R_E1_V4))))
 (let (($x1969 (not (and W_S1_V5 R_E1_V5))))
 (let (($x3975 (forall ((V3_0 Int) )(forall ((V2_0 Int) )(forall ((V5_0 Int) )(forall ((V4_0 Int) )(forall ((MW_S1_V1 Bool) )(forall ((MW_S1_V3 Bool) )(forall ((MW_S1_V2 Bool) )(forall ((MW_S1_V5 Bool) )(forall ((MW_S1_V4 Bool) )(forall ((MW_S2_V1 Bool) )(forall ((MW_S2_V3 Bool) )(forall ((MW_S2_V2 Bool) )(forall ((MW_S2_V5 Bool) )(forall ((MW_S2_V4 Bool) )(forall ((S1_V1_!6074 Int) )(forall ((S1_V1_!6084 Int) )(forall ((S1_V1_!6095 Int) )(forall ((S1_V1_!6100 Int) )(forall ((S2_V5_!6082 Int) )(forall ((S2_V5_!6092 Int) )(forall ((S2_V5_!6109 Int) )(forall ((S2_V5_!6114 Int) )(forall ((S1_V3_!6075 Int) )(forall ((S1_V3_!6085 Int) )(forall ((S1_V3_!6096 Int) )(forall ((S1_V3_!6101 Int) )(forall ((S1_V2_!6076 Int) )(forall ((S1_V2_!6086 Int) )(forall ((S1_V2_!6097 Int) )(forall ((S1_V2_!6102 Int) )(forall ((E1_!6073 Int) )(forall ((E1_!6094 Int) )(forall ((E1_!6105 Int) )(forall ((S2_V4_!6083 Int) )(forall ((S2_V4_!6093 Int) )(forall ((S2_V4_!6110 Int) )(forall ((S2_V4_!6115 Int) )(forall ((S1_V5_!6077 Int) )(forall ((S1_V5_!6087 Int) )(forall ((S1_V5_!6098 Int) )(forall ((S1_V5_!6103 Int) )(forall ((S2_V1_!6079 Int) )(forall ((S2_V1_!6089 Int) )(forall ((S2_V1_!6106 Int) )(forall ((S2_V1_!6111 Int) )(forall ((S1_V4_!6078 Int) )(forall ((S1_V4_!6088 Int) )(forall ((S1_V4_!6099 Int) )(forall ((S1_V4_!6104 Int) )(forall ((S2_V2_!6081 Int) )(forall ((S2_V2_!6091 Int) )(forall ((S2_V2_!6108 Int) )(forall ((S2_V2_!6113 Int) )(forall ((S2_V3_!6080 Int) )(forall ((S2_V3_!6090 Int) )(forall ((S2_V3_!6107 Int) )(forall ((S2_V3_!6112 Int) )(let (($x42 (= (ite MW_S2_V4 S2_V4_!6093 (ite MW_S1_V4 S1_V4_!6088 (ite MW_S2_V4 S2_V4_!6083 (ite MW_S1_V4 S1_V4_!6078 V4_0)))) (ite MW_S2_V4 S2_V4_!6115 (ite MW_S1_V4 S1_V4_!6104 V4_0)))))
 (let (($x734 (= (ite MW_S2_V5 S2_V5_!6092 (ite MW_S1_V5 S1_V5_!6087 (ite MW_S2_V5 S2_V5_!6082 (ite MW_S1_V5 S1_V5_!6077 V5_0)))) (ite MW_S2_V5 S2_V5_!6114 (ite MW_S1_V5 S1_V5_!6103 V5_0)))))
 (let ((?x331 (ite MW_S1_V2 S1_V2_!6102 V2_0)))
 (let ((?x625 (ite MW_S2_V2 S2_V2_!6113 ?x331)))
 (let ((?x2679 (ite MW_S1_V2 S1_V2_!6076 V2_0)))
 (let ((?x1327 (ite MW_S2_V2 S2_V2_!6081 ?x2679)))
 (let ((?x5024 (ite MW_S1_V2 S1_V2_!6086 ?x1327)))
 (let ((?x3222 (ite MW_S2_V2 S2_V2_!6091 ?x5024)))
 (let (($x5511 (= (ite MW_S2_V3 S2_V3_!6090 (ite MW_S1_V3 S1_V3_!6085 (ite MW_S2_V3 S2_V3_!6080 (ite MW_S1_V3 S1_V3_!6075 V3_0)))) (ite MW_S2_V3 S2_V3_!6112 (ite MW_S1_V3 S1_V3_!6101 V3_0)))))
 (let ((?x1824 (ite MW_S2_V1 S2_V1_!6106 E1_!6105)))
 (let ((?x1401 (+ 1 ?x1824)))
 (let ((?x2373 (ite MW_S2_V1 S2_V1_!6111 ?x1401)))
 (let ((?x995 (ite MW_S1_V1 S1_V1_!6074 E1_!6073)))
 (let ((?x4315 (ite MW_S2_V1 S2_V1_!6079 ?x995)))
 (let ((?x3213 (+ 1 ?x4315)))
 (let ((?x2015 (ite MW_S1_V1 S1_V1_!6084 ?x3213)))
 (let ((?x3051 (ite MW_S2_V1 S2_V1_!6089 ?x2015)))
 (let (($x3493 (>= (ite MW_S1_V1 S1_V1_!6100 (+ 1 (ite MW_S1_V1 S1_V1_!6095 E1_!6094))) (+ (- 1) ?x331))))
 (let (($x3683 (and (not (<= V2_0 E1_!6073)) (not (<= ?x1327 ?x3213)) (>= ?x3051 (+ (- 1) ?x3222)) (not (<= V2_0 E1_!6094)) (not (<= (ite MW_S1_V2 S1_V2_!6097 V2_0) (+ 1 (ite MW_S1_V1 S1_V1_!6095 E1_!6094)))) $x3493 (not (<= ?x331 E1_!6105)) (not (<= (ite MW_S2_V2 S2_V2_!6108 ?x331) ?x1401)) (>= ?x2373 (+ (- 1) ?x625)))))
 (let (($x4072 (= S2_V3_!6112 S2_V3_!6090)))
 (let ((?x199 (ite MW_S1_V4 S1_V4_!6078 V4_0)))
 (let ((?x4320 (ite MW_S2_V4 S2_V4_!6083 ?x199)))
 (let ((?x2969 (ite MW_S1_V4 S1_V4_!6088 ?x4320)))
 (let ((?x1691 (ite MW_S1_V4 S1_V4_!6104 V4_0)))
 (let ((?x98 (ite MW_S2_V4 S2_V4_!6110 ?x1691)))
 (let (($x3264 (not R_S2_V4)))
 (let ((?x3081 (ite MW_S1_V5 S1_V5_!6077 V5_0)))
 (let ((?x1405 (ite MW_S2_V5 S2_V5_!6082 ?x3081)))
 (let ((?x3322 (ite MW_S1_V5 S1_V5_!6087 ?x1405)))
 (let ((?x2725 (ite MW_S1_V5 S1_V5_!6103 V5_0)))
 (let ((?x2055 (ite MW_S2_V5 S2_V5_!6109 ?x2725)))
 (let (($x4883 (not R_S2_V5)))
 (let ((?x194 (ite MW_S1_V3 S1_V3_!6075 V3_0)))
 (let ((?x748 (ite MW_S2_V3 S2_V3_!6080 ?x194)))
 (let ((?x1642 (ite MW_S1_V3 S1_V3_!6085 ?x748)))
 (let ((?x3173 (ite MW_S1_V3 S1_V3_!6101 V3_0)))
 (let ((?x509 (ite MW_S2_V3 S2_V3_!6107 ?x3173)))
 (let (($x922 (not R_S2_V3)))
 (let (($x486 (and (or (not R_S2_V1) (= ?x1824 (+ (- 1) ?x2015))) (or $x922 (= ?x509 ?x1642)) (or (not R_S2_V2) (= (ite MW_S2_V2 S2_V2_!6108 ?x331) ?x5024)) (or $x4883 (= ?x2055 ?x3322)) (or $x3264 (= ?x98 ?x2969)))))
 (let (($x6025 (not $x486)))
 (let (($x2111 (= S2_V3_!6112 S2_V3_!6080)))
 (let (($x4337 (and (or (not R_S2_V1) (= ?x1824 (+ (- 1) ?x995))) (or $x922 (= ?x509 ?x194)) (or (not R_S2_V2) (= (ite MW_S2_V2 S2_V2_!6108 ?x331) ?x2679)) (or $x4883 (= ?x2055 ?x3081)) (or $x3264 (= ?x98 ?x199)))))
 (let (($x2587 (not $x4337)))
 (let (($x2078 (= S2_V3_!6107 S2_V3_!6112)))
 (let (($x4645 (and (or (not R_S2_V1) (= E1_!6105 ?x1401)) (or $x922 (= ?x3173 ?x509)) (or (not R_S2_V2) (= ?x331 (ite MW_S2_V2 S2_V2_!6108 ?x331))) (or $x4883 (= ?x2725 ?x2055)) (or $x3264 (= ?x1691 ?x98)))))
 (let (($x1257 (= S2_V3_!6107 S2_V3_!6090)))
 (let (($x2249 (and (or (not R_S2_V1) (= E1_!6105 ?x2015)) (or $x922 (= ?x3173 ?x1642)) (or (not R_S2_V2) (= ?x331 ?x5024)) (or $x4883 (= ?x2725 ?x3322)) (or $x3264 (= ?x1691 ?x2969)))))
 (let (($x3455 (not $x2249)))
 (let (($x1588 (= S2_V3_!6107 S2_V3_!6080)))
 (let (($x3009 (and (or (not R_S2_V1) (= E1_!6105 ?x995)) (or $x922 (= ?x3173 ?x194)) (or (not R_S2_V2) (= ?x331 ?x2679)) (or $x4883 (= ?x2725 ?x3081)) (or $x3264 (= ?x1691 ?x199)))))
 (let (($x1725 (= S2_V3_!6090 S2_V3_!6080)))
 (let (($x571 (and (or (not R_S2_V1) (= ?x2015 ?x995)) (or $x922 (= ?x1642 ?x194)) (or (not R_S2_V2) (= ?x5024 ?x2679)) (or $x4883 (= ?x3322 ?x3081)) (or $x3264 (= ?x2969 ?x199)))))
 (let (($x3110 (not $x571)))
 (let (($x892 (= S2_V2_!6113 S2_V2_!6108)))
 (let (($x3878 (and (or (not R_S2_V1) (= ?x1824 (+ (- 1) E1_!6105))) (or $x922 (= ?x509 ?x3173)) (or (not R_S2_V2) (= (ite MW_S2_V2 S2_V2_!6108 ?x331) ?x331)) (or $x4883 (= ?x2055 ?x2725)) (or $x3264 (= ?x98 ?x1691)))))
 (let (($x1942 (not $x3878)))
 (let (($x2677 (= S2_V2_!6091 S2_V2_!6108)))
 (let (($x2419 (and (or (not R_S2_V1) (= ?x2015 E1_!6105)) (or $x922 (= ?x1642 ?x3173)) (or (not R_S2_V2) (= ?x5024 ?x331)) (or $x4883 (= ?x3322 ?x2725)) (or $x3264 (= ?x2969 ?x1691)))))
 (let (($x1432 (not $x2419)))
 (let (($x3897 (= S2_V2_!6081 S2_V2_!6113)))
 (let (($x1586 (and (or (not R_S2_V1) (= ?x995 ?x1401)) (or $x922 (= ?x194 ?x509)) (or (not R_S2_V2) (= ?x2679 (ite MW_S2_V2 S2_V2_!6108 ?x331))) (or $x4883 (= ?x3081 ?x2055)) (or $x3264 (= ?x199 ?x98)))))
 (let (($x2429 (not $x1586)))
 (let (($x5985 (= S2_V2_!6081 S2_V2_!6108)))
 (let (($x1913 (and (or (not R_S2_V1) (= ?x995 E1_!6105)) (or $x922 (= ?x194 ?x3173)) (or (not R_S2_V2) (= ?x2679 ?x331)) (or $x4883 (= ?x3081 ?x2725)) (or $x3264 (= ?x199 ?x1691)))))
 (let (($x2803 (not $x1913)))
 (let (($x773 (= S2_V2_!6081 S2_V2_!6091)))
 (let (($x4877 (and (or (not R_S2_V1) (= ?x995 ?x2015)) (or $x922 (= ?x194 ?x1642)) (or (not R_S2_V2) (= ?x2679 ?x5024)) (or $x4883 (= ?x3081 ?x3322)) (or $x3264 (= ?x199 ?x2969)))))
 (let (($x1715 (not $x4877)))
 (let (($x5825 (= S1_V4_!6104 S1_V4_!6088)))
 (let (($x5894 (and (or (not R_S1_V1) (= (ite MW_S1_V1 S1_V1_!6095 E1_!6094) ?x4315)) (or (not R_S1_V3) (= (ite MW_S1_V3 S1_V3_!6096 V3_0) ?x748)) (or (not R_S1_V2) (= (ite MW_S1_V2 S1_V2_!6097 V2_0) ?x1327)) (or (not R_S1_V5) (= (ite MW_S1_V5 S1_V5_!6098 V5_0) ?x1405)) (or (not R_S1_V4) (= (ite MW_S1_V4 S1_V4_!6099 V4_0) ?x4320)))))
 (let (($x3058 (not $x5894)))
 (let (($x657 (not R_S1_V4)))
 (let (($x2250 (or $x657 (= (ite MW_S1_V4 S1_V4_!6099 V4_0) V4_0))))
 (let (($x1345 (not R_S1_V5)))
 (let (($x3406 (or $x1345 (= (ite MW_S1_V5 S1_V5_!6098 V5_0) V5_0))))
 (let (($x3524 (not R_S1_V2)))
 (let (($x2582 (or $x3524 (= (ite MW_S1_V2 S1_V2_!6097 V2_0) V2_0))))
 (let (($x185 (not R_S1_V3)))
 (let (($x3237 (or $x185 (= (ite MW_S1_V3 S1_V3_!6096 V3_0) V3_0))))
 (let (($x2469 (and (or (not R_S1_V1) (= (ite MW_S1_V1 S1_V1_!6095 E1_!6094) (+ (- 1) E1_!6073))) $x3237 $x2582 $x3406 $x2250)))
 (let (($x959 (not $x2469)))
 (let (($x1156 (or $x657 (= V4_0 (ite MW_S1_V4 S1_V4_!6099 V4_0)))))
 (let (($x3290 (or $x1345 (= V5_0 (ite MW_S1_V5 S1_V5_!6098 V5_0)))))
 (let (($x5440 (or $x3524 (= V2_0 (ite MW_S1_V2 S1_V2_!6097 V2_0)))))
 (let (($x3398 (or $x185 (= V3_0 (ite MW_S1_V3 S1_V3_!6096 V3_0)))))
 (let (($x1426 (and (or (not R_S1_V1) (= E1_!6094 (+ 1 (ite MW_S1_V1 S1_V1_!6095 E1_!6094)))) $x3398 $x5440 $x3290 $x1156)))
 (let (($x2964 (not $x1426)))
 (let (($x721 (= S1_V4_!6099 S1_V4_!6088)))
 (let (($x4062 (or $x657 (= V4_0 ?x4320))))
 (let (($x5995 (or $x1345 (= V5_0 ?x1405))))
 (let (($x2379 (or $x3524 (= V2_0 ?x1327))))
 (let (($x4693 (or $x185 (= V3_0 ?x748))))
 (let (($x2455 (not (and (or (not R_S1_V1) (= E1_!6094 ?x3213)) $x4693 $x2379 $x5995 $x4062))))
 (let (($x1364 (or $x657 (= ?x4320 V4_0))))
 (let (($x1427 (or $x1345 (= ?x1405 V5_0))))
 (let (($x478 (or $x3524 (= ?x1327 V2_0))))
 (let (($x1118 (or $x185 (= ?x748 V3_0))))
 (let (($x5282 (and (or (not R_S1_V1) (= ?x4315 (+ (- 1) E1_!6073))) $x1118 $x478 $x1427 $x1364)))
 (let (($x5055 (not $x5282)))
 (let (($x1014 (= S2_V1_!6089 S2_V1_!6111)))
 (let (($x2259 (and (or (not R_S2_V1) (= ?x2015 ?x1401)) (or $x922 (= ?x1642 ?x509)) (or (not R_S2_V2) (= ?x5024 (ite MW_S2_V2 S2_V2_!6108 ?x331))) (or $x4883 (= ?x3322 ?x2055)) (or $x3264 (= ?x2969 ?x98)))))
 (let (($x3251 (not $x2259)))
 (let (($x4557 (= S1_V5_!6103 S1_V5_!6098)))
 (let (($x6010 (and (or (not R_S1_V1) (= (ite MW_S1_V1 S1_V1_!6095 E1_!6094) (+ (- 1) E1_!6094))) $x3237 $x2582 $x3406 $x2250)))
 (let (($x4742 (not $x6010)))
 (let (($x1220 (or (not (and (or (not R_S1_V1) (= E1_!6073 ?x3213)) $x4693 $x2379 $x5995 $x4062)) (= S1_V5_!6077 S1_V5_!6087))))
 (let (($x2358 (and (or (not R_E1_V2) (= ?x331 V2_0)) (or (not R_E1_V5) (= ?x2725 V5_0)) (or (not R_E1_V4) (= ?x1691 V4_0)))))
 (let (($x1770 (= E1_!6073 E1_!6105)))
 (let (($x544 (and (or (not R_E1_V2) (= V2_0 ?x331)) (or (not R_E1_V5) (= V5_0 ?x2725)) (or (not R_E1_V4) (= V4_0 ?x1691)))))
 (let (($x115 (= E1_!6073 E1_!6094)))
 (let (($x1356 (and (or (not R_S1_V1) (= ?x4315 (ite MW_S1_V1 S1_V1_!6095 E1_!6094))) (or $x185 (= ?x748 (ite MW_S1_V3 S1_V3_!6096 V3_0))) (or $x3524 (= ?x1327 (ite MW_S1_V2 S1_V2_!6097 V2_0))) (or $x1345 (= ?x1405 (ite MW_S1_V5 S1_V5_!6098 V5_0))) (or $x657 (= ?x4320 (ite MW_S1_V4 S1_V4_!6099 V4_0))))))
 (let (($x2445 (not $x1356)))
 (let (($x2450 (and (or (not R_S1_V1) (= ?x4315 (+ (- 1) E1_!6094))) $x1118 $x478 $x1427 $x1364)))
 (let (($x1644 (not $x2450)))
 (let (($x5953 (and (or (not R_S1_V1) (= E1_!6073 (+ 1 (ite MW_S1_V1 S1_V1_!6095 E1_!6094)))) $x3398 $x5440 $x3290 $x1156)))
 (let (($x3338 (not $x5953)))
 (let (($x1109 (and (or $x3338 (= S1_V1_!6074 S1_V1_!6100)) (or $x5055 (= S1_V1_!6084 S1_V1_!6074)) (or $x1644 (= S1_V1_!6084 S1_V1_!6095)) (or $x2445 (= S1_V1_!6084 S1_V1_!6100)) (or (not (or (not R_S1_V1) (= E1_!6094 E1_!6073))) (= S1_V1_!6095 S1_V1_!6074)) (or $x2964 (= S1_V1_!6095 S1_V1_!6100)) (or $x2803 (= S2_V5_!6082 S2_V5_!6109)) (or $x2429 (= S2_V5_!6082 S2_V5_!6114)) (or $x3110 (= S2_V5_!6092 S2_V5_!6082)) (or $x1432 (= S2_V5_!6092 S2_V5_!6109)) (or $x3251 (= S2_V5_!6092 S2_V5_!6114)) (or $x1942 (= S2_V5_!6114 S2_V5_!6109)) (or (not (or (not R_S1_V1) $x115)) (= S1_V3_!6075 S1_V3_!6096)) (or $x5055 (= S1_V3_!6085 S1_V3_!6075)) (or $x1644 (= S1_V3_!6085 S1_V3_!6096)) (or $x2445 (= S1_V3_!6085 S1_V3_!6101)) (or $x959 (= S1_V3_!6101 S1_V3_!6075)) (or $x4742 (= S1_V3_!6101 S1_V3_!6096)) (or $x3338 (= S1_V2_!6076 S1_V2_!6102)) (or $x5055 (= S1_V2_!6086 S1_V2_!6076)) (or $x1644 (= S1_V2_!6086 S1_V2_!6097)) (or $x2445 (= S1_V2_!6086 S1_V2_!6102)) (or (not (or (not R_S1_V1) (= E1_!6094 E1_!6073))) (= S1_V2_!6097 S1_V2_!6076)) (or $x2964 (= S1_V2_!6097 S1_V2_!6102)) $x115 (or (not $x544) $x1770) (or (not $x2358) (= E1_!6105 E1_!6094)) (or $x1715 (= S2_V4_!6083 S2_V4_!6093)) (or $x2803 (= S2_V4_!6083 S2_V4_!6110)) (or $x3455 (= S2_V4_!6110 S2_V4_!6093)) (or $x2587 (= S2_V4_!6115 S2_V4_!6083)) (or $x6025 (= S2_V4_!6115 S2_V4_!6093)) (or $x1942 (= S2_V4_!6115 S2_V4_!6110)) $x1220 (or (not (or (not R_S1_V1) $x115)) (= S1_V5_!6077 S1_V5_!6098)) (or $x2455 (= S1_V5_!6098 S1_V5_!6087)) (or $x959 (= S1_V5_!6103 S1_V5_!6077)) (or $x3058 (= S1_V5_!6103 S1_V5_!6087)) (or $x4742 $x4557) (or $x1715 (= S2_V1_!6079 S2_V1_!6089)) (or $x2803 (= S2_V1_!6079 S2_V1_!6106)) (or $x2429 (= S2_V1_!6079 S2_V1_!6111)) (or $x1432 (= S2_V1_!6089 S2_V1_!6106)) (or $x3251 $x1014) (or $x1942 (= S2_V1_!6111 S2_V1_!6106)) (or $x5055 (= S1_V4_!6088 S1_V4_!6078)) (or (not (or (not R_S1_V1) (= E1_!6094 E1_!6073))) (= S1_V4_!6099 S1_V4_!6078)) (or $x2455 $x721) (or $x2964 (= S1_V4_!6099 S1_V4_!6104)) (or $x959 (= S1_V4_!6104 S1_V4_!6078)) (or $x3058 $x5825) (or $x1715 $x773) (or $x2803 $x5985) (or $x2429 $x3897) (or $x1432 $x2677) (or $x6025 (= S2_V2_!6113 S2_V2_!6091)) (or $x1942 $x892) (or $x3110 $x1725) (or (not $x3009) $x1588) (or $x3455 $x1257) (or (not $x4645) $x2078) (or $x2587 $x2111) (or $x6025 $x4072) (not MW_S1_V1) (not MW_S1_V2) (or (not MW_S1_V5) W_S1_V5) (or (not MW_S1_V4) W_S1_V4) (or (not MW_S2_V1) W_S2_V1) (or (not MW_S2_V3) W_S2_V3) (or (not MW_S2_V2) W_S2_V2) (or (not MW_S2_V5) W_S2_V5))))
 (or (not $x1109) (not $x3683) (and (= ?x3051 ?x2373) $x5511 (= ?x3222 ?x625) $x734 $x42))))))))))))))))))))))))))))))))))))))))))))))))))))))))))))))))))))))))))))))))))))))))))))))))))))))))))))))))))))))))
 )
 )
 )
 )
 )
 )
 )
 )
 )
 )
 )
 )
 )
 )
 )
 )
 )
 )
 )
 )
 )
 )
 )
 )
 )
 )
 )
 )
 )
 )
 )
 )
 )
 )
 )
 )
 )
 )
 )
 )
 )
 )
 )
 )
 )
 )
 )
 )
 )
 )
 )
 )
 )
 )
 )
 )
 ))
 (let (($x2160 (or (and W_S2_V2 R_E1_V2) (and W_S2_V5 R_E1_V5) R_E1_V4)))
 (let (($x3082 (= DISJ_W_S2_R_E1 (not $x2160))))
 (let (($x2954 (and W_S2_V5 R_S2_V5)))
 (let (($x3778 (and W_S2_V2 R_S2_V2)))
 (let (($x4237 (and W_S2_V3 R_S2_V3)))
 (let (($x4015 (and W_S2_V1 R_S2_V1)))
 (let (($x5251 (= DISJ_W_S2_R_S2 (not (or $x4015 $x4237 $x3778 $x2954 R_S2_V4)))))
 (let (($x2675 (and W_S2_V5 R_S1_V5)))
 (let (($x3255 (and W_S2_V2 R_S1_V2)))
 (let (($x3609 (and W_S2_V3 R_S1_V3)))
 (let (($x5420 (and W_S2_V1 R_S1_V1)))
 (let (($x2922 (= DISJ_W_S2_R_S1 (not (or $x5420 $x3609 $x3255 $x2675 R_S1_V4)))))
 (let (($x1760 (= DISJ_W_S1_W_S2 (not (or W_S2_V3 (and W_S1_V5 W_S2_V5) W_S1_V4)))))
 (let (($x1835 (not R_E1_V3)))
 (let (($x3412 (not (or R_S2_V3 (and W_S1_V5 R_S2_V5) (and W_S1_V4 R_S2_V4)))))
 (let (($x1217 (= DISJ_W_S1_R_S2 $x3412)))
 (let (($x5346 (not (or R_S1_V3 (and W_S1_V5 R_S1_V5) (and W_S1_V4 R_S1_V4)))))
 (let (($x3113 (= DISJ_W_S1_R_S1 $x5346)))
 (let (($x2985 (not W_S2_V2)))
 (let (($x1508 (not R_S2_V1)))
 (let (($x4966 (and $x1508 $x922 $x2985 $x2315 DISJ_W_S2_R_S1)))
 (let (($x3646 (not W_S2_V3)))
 (let (($x4883 (not R_S2_V5)))
 (let (($x3313 (and $x1508 $x4883 $x2985 $x3646 DISJ_W_S2_R_S1)))
 (let (($x1882 (and $x1508 $x2985 $x2315 $x3646 DISJ_W_S2_R_S1)))
 (let (($x5118 (and $x1508 $x922 $x4883 $x2985 DISJ_W_S2_R_S1)))
 (let (($x388 (and $x1508 $x3264 $x2985 $x2315 DISJ_W_S2_R_S1)))
 (let (($x5081 (and $x1508 $x4883 $x3264 $x2985 DISJ_W_S2_R_S1)))
 (let (($x5929 (and $x1508 $x3264 $x2985 $x3646 DISJ_W_S2_R_S1)))
 (let (($x2058 (and $x1508 $x922 $x3264 $x2985 DISJ_W_S2_R_S1)))
 (let (($x928 (and $x4883 $x691 $x3646 DISJ_W_S2_R_S1)))
 (let (($x5358 (and $x4883 $x3264 $x3646 DISJ_W_S2_R_S1)))
 (let (($x2650 (and $x3264 $x3779 $x3646 DISJ_W_S2_R_S1)))
 (let (($x1436 (and $x3264 $x2315 $x3646 DISJ_W_S2_R_S1)))
 (let (($x5244 (and DISJ_W_S1_W_S2 DISJ_W_S2_R_S1)))
 (let (($x1460 (and $x922 $x691 $x2315 DISJ_W_S2_R_S1)))
 (let (($x2894 (and (not W_S2_V1) $x2985)))
 (let (($x4688 (and $x2985 DISJ_W_S2_R_S2)))
 (let (($x4924 (or $x3716 $x4688 $x2273 $x2871 $x2894 $x1460 $x5244 $x1436 $x2650 $x5358 $x928 $x2058 $x5929 $x5081 $x388 $x5118 $x1882 $x3313 $x4966)))
 (let (($x2780 (and $x813 DISJ_W_S1_R_S1)))
 (let (($x2773 (and $x2985 DISJ_W_S2_R_S1 DISJ_W_S1_R_S1)))
 (let (($x4238 (or $x2773 $x2894 $x2780)))
 (let (($x2716 (not W_S1_V2)))
 (let (($x3343 (not W_S1_V1)))
 (let (($x2005 (not R_E1_V1)))
 (let (($x2915 (and DISJ_W_S1_R_E1 $x2005 $x3343 $x2716 $x4238 $x4924 W_S1_V3 W_S2_V4 $x3113 $x1217 $x1835 $x1760 $x2922 $x5251 $x3082 $x3975 $x1969 $x300)))
 (and $x2915 $x3657 $x3538 $x826 $x3027 $x5958 $x3913)))))))))))))))))))))))))))))))))))))))))))))))))))))))))))))))))))
(check-sat)
